
Gurobi 11.0.0 (linux64) logging started Mon Jul 22 16:48:25 2024

Set parameter LogFile to value "/lustre1/scratch/348/vsc34888/JointResearch/05.Models/06.Benchmarking/M.Random_forest/RTS24_mod2_ByStages_nc200/openStarNet_RTS24_mod2_ByStages_nc200.log"
Set parameter Method to value 2
Set parameter MIPFocus to value 1
Set parameter Presolve to value 2
Set parameter RINS to value 100
Set parameter MIPGap to value 0.01
Set parameter Threads to value 36
Set parameter TimeLimit to value 259200
Set parameter IterationLimit to value 760000000
Gurobi Optimizer version 11.0.0 build v11.0.0rc2 (linux64 - "Rocky Linux 8.9 (Green Obsidian)")

CPU model: Intel(R) Xeon(R) Gold 6240 CPU @ 2.60GHz, instruction set [SSE2|AVX|AVX2|AVX512]
Thread count: 36 physical cores, 36 logical processors, using up to 36 threads

Optimize a model with 71003 rows, 47937 columns and 193580 nonzeros
Model fingerprint: 0x5a53d5e4
Variable types: 47916 continuous, 21 integer (21 binary)
Coefficient statistics:
  Matrix range     [1e-03, 4e+02]
  Objective range  [1e+00, 1e+00]
  Bounds range     [4e-05, 3e+00]
  RHS range        [4e-05, 3e+00]
Presolve removed 42280 rows and 24310 columns
Presolve time: 0.26s
Presolved: 28723 rows, 23627 columns, 103715 nonzeros
Variable types: 23606 continuous, 21 integer (21 binary)
Root relaxation presolved: 28723 rows, 23627 columns, 103715 nonzeros

Root barrier log...

Ordering time: 0.01s

Barrier statistics:
 Dense cols : 21
 AA' NZ     : 1.926e+05
 Factor NZ  : 5.615e+05 (roughly 26 MB of memory)
 Factor Ops : 1.287e+07 (less than 1 second per iteration)
 Threads    : 35

                  Objective                Residual
Iter       Primal          Dual         Primal    Dual     Compl     Time
   0   6.54284283e+05 -8.95999694e+07  5.25e+00 7.37e+01  3.74e+03     0s
   1   1.01921755e+05 -2.30536432e+07  6.80e-01 7.39e-09  5.16e+02     0s
   2   4.08273047e+04 -7.03914065e+06  1.71e-01 1.82e-09  1.27e+02     0s
   3   2.01285742e+04 -8.23931509e+05  5.00e-03 1.40e-10  1.27e+01     0s
   4   1.01845814e+04 -1.75543734e+05  2.36e-04 2.73e-11  2.78e+00     1s
   5   3.31558670e+03 -4.42965495e+04  2.22e-05 6.61e-12  7.11e-01     1s
   6   1.12636108e+03 -9.91159050e+03  3.63e-06 1.38e-12  1.65e-01     1s
   7   5.45697518e+02 -2.76568687e+03  8.66e-07 4.55e-13  4.95e-02     1s
   8   2.85160803e+02 -9.80555323e+02  2.60e-07 9.09e-13  1.89e-02     1s
   9   1.92368198e+02 -4.69422388e+02  1.35e-07 4.55e-13  9.89e-03     1s
  10   1.16064825e+02 -1.48837330e+02  4.90e-08 4.55e-13  3.96e-03     1s
  11   8.69447434e+01 -5.28704327e+01  2.50e-08 9.09e-13  2.09e-03     1s
  12   7.56658132e+01  4.35765663e+00  1.66e-08 4.55e-13  1.07e-03     1s
  13   7.15286283e+01  5.99092933e+00  1.37e-08 4.55e-13  9.79e-04     1s
  14   6.35834147e+01  2.16577555e+01  8.35e-09 9.09e-13  6.26e-04     1s
  15   5.96173173e+01  3.29014754e+01  5.71e-09 4.55e-13  3.99e-04     1s
  16   5.72623942e+01  3.84392422e+01  4.16e-09 4.55e-13  2.81e-04     1s
  17   5.44242089e+01  4.27400759e+01  2.35e-09 4.55e-13  1.75e-04     1s
  18   5.34976072e+01  4.59974113e+01  1.74e-09 4.55e-13  1.12e-04     1s
  19   5.27713472e+01  4.72794345e+01  1.26e-09 4.55e-13  8.21e-05     1s
  20   5.24063484e+01  4.79903148e+01  1.01e-09 4.55e-13  6.60e-05     1s
  21   5.18503246e+01  4.87517387e+01  6.23e-10 4.55e-13  4.63e-05     1s
  22   5.15821242e+01  4.95770351e+01  4.44e-10 4.55e-13  3.00e-05     1s
  23   5.15037613e+01  5.00697707e+01  3.95e-10 4.55e-13  2.14e-05     1s
  24   5.11474307e+01  5.02688826e+01  1.57e-10 4.55e-13  1.31e-05     1s
  25   5.10208601e+01  5.05270970e+01  7.41e-11 4.55e-13  7.38e-06     1s
  26   5.09881805e+01  5.06571883e+01  5.32e-11 4.55e-13  4.95e-06     1s
  27   5.09582221e+01  5.07393495e+01  3.28e-11 4.55e-13  3.27e-06     1s
  28   5.09415031e+01  5.07535061e+01  3.70e-11 4.55e-13  2.81e-06     1s
  29   5.09289535e+01  5.07654912e+01  1.95e-11 9.09e-13  2.44e-06     1s
  30   5.09207699e+01  5.08717530e+01  1.27e-11 4.55e-13  7.32e-07     1s
  31   5.09150038e+01  5.08748773e+01  2.21e-10 2.27e-13  6.00e-07     1s
  32   5.09090386e+01  5.08850004e+01  4.82e-11 4.55e-13  3.59e-07     1s
  33   5.09060872e+01  5.09001760e+01  3.56e-11 4.55e-13  8.83e-08     1s
  34   5.09055722e+01  5.09020568e+01  8.27e-11 5.36e-13  5.25e-08     1s
  35   5.09053560e+01  5.09031806e+01  4.32e-10 5.28e-13  3.25e-08     1s
  36   5.09052289e+01  5.09041689e+01  9.42e-10 4.55e-13  1.58e-08     1s
  37   5.09052139e+01  5.09046822e+01  4.72e-09 4.55e-13  7.94e-09     1s
  38   5.09052009e+01  5.09050168e+01  1.82e-09 1.45e-12  2.75e-09     1s
  39   5.09051943e+01  5.09051868e+01  5.95e-11 4.55e-13  1.13e-10     1s
  40   5.09051942e+01  5.09051930e+01  1.47e-10 4.55e-13  1.74e-11     1s
  41   5.09051942e+01  5.09051941e+01  6.42e-11 4.55e-13  4.15e-13     1s

Barrier solved model in 41 iterations and 0.93 seconds (0.86 work units)
Optimal objective 5.09051942e+01


Root relaxation: objective 5.090519e+01, 3999 iterations, 0.79 seconds (0.64 work units)

    Nodes    |    Current Node    |     Objective Bounds      |     Work
 Expl Unexpl |  Obj  Depth IntInf | Incumbent    BestBd   Gap | It/Node Time

     0     0   50.90519    0   18          -   50.90519      -     -    1s
H    0     0                      99.2282538   50.90519  48.7%     -    1s
     0     0   51.64043    0    9   99.22825   51.64043  48.0%     -    3s
H    0     0                      95.6658086   51.64043  46.0%     -    3s
H    0     0                      89.5385899   51.67708  42.3%     -    4s
     0     0   51.67708    0    8   89.53859   51.67708  42.3%     -    4s
H    0     0                      86.9302489   51.80165  40.4%     -    4s
     0     0   51.80165    0   10   86.93025   51.80165  40.4%     -    4s
     0     0   51.82286    0   10   86.93025   51.82286  40.4%     -    4s
H    0     0                      82.9991766   51.82286  37.6%     -    5s
     0     0   51.97587    0   14   82.99918   51.97587  37.4%     -    5s
     0     0   52.13582    0   11   82.99918   52.13582  37.2%     -    6s
     0     0   52.13582    0   10   82.99918   52.13582  37.2%     -    6s
     0     0   52.13582    0   13   82.99918   52.13582  37.2%     -    6s
     0     0   52.13582    0   13   82.99918   52.13582  37.2%     -    6s
     0     0   52.13582    0   13   82.99918   52.13582  37.2%     -    7s
H    0     0                      76.1130610   52.13582  31.5%     -    7s
     0     0   52.13582    0   11   76.11306   52.13582  31.5%     -    7s
     0     0   52.13582    0   11   76.11306   52.13582  31.5%     -    7s
     0     0   52.13582    0   11   76.11306   52.13582  31.5%     -    7s
     0     0   52.23612    0   11   76.11306   52.23612  31.4%     -    8s
H    0     0                      69.4854031   52.23612  24.8%     -   29s
     0     2   52.23612    0   11   69.48540   52.23612  24.8%     -   30s
H   29    32                      69.1104141   53.12942  23.1%  1314   33s
    63    98   56.86695    6   14   69.11041   54.87944  20.6%  1704   36s
    99   132   58.84048    7   13   69.11041   54.88815  20.6%  1616   49s
H  110   132                      68.9551829   54.88815  20.4%  1618   49s
   135   160   60.39394    8   13   68.95518   54.88815  20.4%  1548   50s
   299   235     cutoff   11        68.95518   54.88815  20.4%  1242  125s
   535   285   67.67272   14    7   68.95518   54.88815  20.4%  1108  130s
   754   337     cutoff    8        68.95518   56.23343  18.4%  1016  136s
  1053   336   63.22752    8   10   68.95518   58.21762  15.6%   921  147s
  1134   343   65.74512    9    9   68.95518   58.21762  15.6%   901  156s
  1197   355   68.51750   10   10   68.95518   58.21762  15.6%   891  234s
  1338   360     cutoff   10        68.95518   58.21762  15.6%   862  235s
  1495   356     cutoff   10        68.95518   60.61101  12.1%   848  313s
  1680   358     cutoff    8        68.95518   62.36342  9.56%   818  316s
  2460   218     cutoff   15        68.95518   65.15436  5.51%   714  321s
  3270     3     cutoff   12        68.95518   66.95897  2.89%   630  325s

Cutting planes:
  Implied bound: 180
  MIR: 684
  Relax-and-lift: 94

Explored 3365 nodes (2100500 simplex iterations) in 326.64 seconds (395.45 work units)
Thread count was 36 (of 36 available processors)

Solution count 9: 68.9552 69.1104 69.4854 ... 99.2283

Optimal solution found (tolerance 1.00e-02)
Best objective 6.895518286625e+01, best bound 6.895518286625e+01, gap 0.0000%

Gurobi 11.0.0 (linux64) logging started Mon Jul 22 16:54:10 2024

Set parameter LogFile to value "/lustre1/scratch/348/vsc34888/JointResearch/05.Models/06.Benchmarking/M.Random_forest/RTS24_mod2_ByStages_nc200/openStarNet_RTS24_mod2_ByStages_nc200.log"
Set parameter Method to value 2
Set parameter MIPFocus to value 1
Set parameter Presolve to value 2
Set parameter RINS to value 100
Set parameter MIPGap to value 0.01
Set parameter Threads to value 36
Set parameter TimeLimit to value 259200
Set parameter IterationLimit to value 760000000
Gurobi Optimizer version 11.0.0 build v11.0.0rc2 (linux64 - "Rocky Linux 8.9 (Green Obsidian)")

CPU model: Intel(R) Xeon(R) Gold 6240 CPU @ 2.60GHz, instruction set [SSE2|AVX|AVX2|AVX512]
Thread count: 36 physical cores, 36 logical processors, using up to 36 threads

Optimize a model with 71003 rows, 47916 columns and 176759 nonzeros
Model fingerprint: 0xc934baa4
Coefficient statistics:
  Matrix range     [1e-03, 4e+02]
  Objective range  [1e+00, 1e+00]
  Bounds range     [4e-05, 3e+00]
  RHS range        [4e-05, 2e+01]
Presolve removed 58831 rows and 26588 columns
Presolve time: 0.08s
Presolved: 12172 rows, 21728 columns, 54356 nonzeros

Ordering time: 0.00s

Barrier statistics:
 AA' NZ     : 3.012e+04
 Factor NZ  : 9.897e+04 (roughly 11 MB of memory)
 Factor Ops : 1.258e+06 (less than 1 second per iteration)
 Threads    : 36

                  Objective                Residual
Iter       Primal          Dual         Primal    Dual     Compl     Time
   0   1.07052894e+06 -2.90629556e+07  1.52e+01 4.04e+01  4.73e+03     0s
   1   1.06762002e+05 -1.59191824e+07  1.26e+00 5.12e+01  7.04e+02     0s
   2   3.88931934e+04 -4.65474064e+06  2.52e-01 6.55e+00  1.61e+02     0s
   3   2.14582522e+04 -3.50200818e+05  7.51e-03 9.84e-13  1.05e+01     0s
   4   9.69000827e+03 -5.88338753e+04  7.82e-04 3.28e-12  1.91e+00     0s
   5   2.81597163e+03 -1.51644897e+04  8.98e-05 1.35e-12  4.99e-01     0s
   6   9.72812144e+02 -3.92582929e+03  1.64e-05 4.10e-13  1.36e-01     0s
   7   4.83523873e+02 -1.06225053e+03  4.06e-06 2.27e-13  4.29e-02     0s
   8   3.09633409e+02 -4.88497825e+02  1.77e-06 2.27e-13  2.21e-02     0s
   9   2.04574071e+02 -1.90723870e+02  7.88e-07 2.27e-13  1.10e-02     0s
  10   1.44125069e+02 -2.78890756e+01  3.97e-07 2.27e-13  4.77e-03     0s
  11   9.16779507e+01  2.61582146e+01  1.03e-07 2.27e-13  1.82e-03     0s
  12   7.48487540e+01  6.08409817e+01  2.31e-08 2.27e-13  3.88e-04     0s
  13   7.11528444e+01  6.65994716e+01  7.93e-09 2.27e-13  1.26e-04     0s
  14   6.97467687e+01  6.82186560e+01  2.77e-09 2.27e-13  4.24e-05     0s
  15   6.92748085e+01  6.87015558e+01  1.09e-09 2.27e-13  1.59e-05     0s
  16   6.90491431e+01  6.88661387e+01  3.04e-10 2.27e-13  5.07e-06     0s
  17   6.89823995e+01  6.89423402e+01  8.22e-11 2.27e-13  1.11e-06     0s
  18   6.89576316e+01  6.89544340e+01  2.18e-11 2.27e-13  8.87e-08     0s
  19   6.89552169e+01  6.89551567e+01  8.98e-11 2.27e-13  1.67e-09     0s
  20   6.89551829e+01  6.89551828e+01  1.64e-11 2.27e-13  1.67e-12     0s
  21   6.89551829e+01  6.89551829e+01  6.17e-12 2.27e-13  1.04e-17     0s

Barrier solved model in 21 iterations and 0.26 seconds (0.22 work units)
Optimal objective 6.89551829e+01

Crossover log...

    2515 DPushes remaining with DInf 0.0000000e+00                 0s
       0 DPushes remaining with DInf 0.0000000e+00                 0s

     647 PPushes remaining with PInf 0.0000000e+00                 0s
       0 PPushes remaining with PInf 0.0000000e+00                 0s

  Push phase complete: Pinf 0.0000000e+00, Dinf 1.1055352e-13      0s

Iteration    Objective       Primal Inf.    Dual Inf.      Time
     671    6.8955183e+01   0.000000e+00   0.000000e+00      0s

Use crossover to convert LP symmetric solution to basic solution...
Crossover log...

       0 DPushes remaining with DInf 0.0000000e+00                 0s

     476 PPushes remaining with PInf 0.0000000e+00                 0s
       0 PPushes remaining with PInf 0.0000000e+00                 0s

  Push phase complete: Pinf 0.0000000e+00, Dinf 1.4738763e-13      0s

Iteration    Objective       Primal Inf.    Dual Inf.      Time
    1183    6.8955183e+01   0.000000e+00   0.000000e+00      0s

Solved in 1183 iterations and 0.38 seconds (0.28 work units)
Optimal objective  6.895518287e+01
